9999.0 3.0 5.0 48.0 48.0 8.0 8.0 5.0 5.0 3.0 3.0 0.0 3.0 5.0 8.0 8.0 5.0
3.0 9999.0 3.0 48.0 48.0 8.0 8.0 5.0 5.0 0.0 0.0 3.0 0.0 3.0 8.0 8.0 5.0
5.0 3.0 9999.0 72.0 72.0 48.0 48.0 24.0 24.0 3.0 3.0 5.0 3.0 0.0 48.0 48.0 24.0
48.0 48.0 74.0 9999.0 0.0 6.0 6.0 12.0 12.0 48.0 48.0 48.0 48.0 74.0 6.0 6.0 12.0
48.0 48.0 74.0 0.0 9999.0 6.0 6.0 12.0 12.0 48.0 48.0 48.0 48.0 74.0 6.0 6.0 12.0
8.0 8.0 50.0 6.0 6.0 9999.0 0.0 8.0 8.0 8.0 8.0 8.0 8.0 50.0 0.0 0.0 8.0
8.0 8.0 50.0 6.0 6.0 0.0 9999.0 8.0 8.0 8.0 8.0 8.0 8.0 50.0 0.0 0.0 8.0
5.0 5.0 26.0 12.0 12.0 8.0 8.0 9999.0 0.0 5.0 5.0 5.0 5.0 26.0 8.0 8.0 0.0
5.0 5.0 26.0 12.0 12.0 8.0 8.0 0.0 9999.0 5.0 5.0 5.0 5.0 26.0 8.0 8.0 0.0
3.0 0.0 3.0 48.0 48.0 8.0 8.0 5.0 5.0 9999.0 0.0 3.0 0.0 3.0 8.0 8.0 5.0
3.0 0.0 3.0 48.0 48.0 8.0 8.0 5.0 5.0 0.0 9999.0 3.0 0.0 3.0 8.0 8.0 5.0
0.0 3.0 5.0 48.0 48.0 8.0 8.0 5.0 5.0 3.0 3.0 9999.0 3.0 5.0 8.0 8.0 5.0
3.0 0.0 3.0 48.0 48.0 8.0 8.0 5.0 5.0 0.0 0.0 3.0 9999.0 3.0 8.0 8.0 5.0
5.0 3.0 0.0 72.0 72.0 48.0 48.0 24.0 24.0 3.0 3.0 5.0 3.0 9999.0 48.0 48.0 24.0
8.0 8.0 50.0 6.0 6.0 0.0 0.0 8.0 8.0 8.0 8.0 8.0 8.0 50.0 9999.0 0.0 8.0
8.0 8.0 50.0 6.0 6.0 0.0 0.0 8.0 8.0 8.0 8.0 8.0 8.0 50.0 0.0 9999.0 8.0
5.0 5.0 26.0 12.0 12.0 8.0 8.0 0.0 0.0 5.0 5.0 5.0 5.0 26.0 8.0 8.0 9999.0
